Route 1: 31 10 30 20 9 35 34 33 3 1
Route 2: 7 48 46 8 45 17 16 5 18
Route 3: 41 22 23 39 24 4 25 12
Route 4: 21 2 15 43 14 42 40 29
Route 5: 27 32 11 49 36 47 19 50
Route 6: 28 44 38 37 13 6 26
Vehicles: 6
Distance: 790.58
